5 5
1 89 3 13 2 18 0 21 4 65
2 8 3 48 0 85 4 43 1 53
3 85 2 27 0 19 1 23 4 50
2 51 1 43 4 99 0 51 3 69
3 41 4 72 0 11 2 80 1 88
-1
0 2 5
0 3 5
0 2 5
0 3 4 5
0 2 5
-2
103 273
192 296
169 261
202 294 391
150 329

388 8
22 7 3 12 18
16 0 24 13 9
5 15 23 2 11
20 6 10 1 19
21 17 8 4 14
